unsat
(forall ((A (_ BitVec 1))
         (B (_ BitVec 2))
         (C (_ BitVec 2))
         (D (_ BitVec 1))
         (E (_ BitVec 32))
         (F (_ BitVec 1))
         (G (_ BitVec 1))
         (H (_ BitVec 2))
         (I (_ BitVec 1))
         (J (_ BitVec 8))
         (K (_ BitVec 32))
         (L (_ BitVec 2))
         (M (_ BitVec 2))
         (N (_ BitVec 1))
         (O (_ BitVec 8))
         (P (_ BitVec 2))
         (Q (_ BitVec 32))
         (R (_ BitVec 32))
         (S (_ BitVec 1))
         (T (_ BitVec 1))
         (U (_ BitVec 2))
         (V (_ BitVec 1))
         (W (_ BitVec 12))
         (X (_ BitVec 1))
         (Y (_ BitVec 1))
         (Z (_ BitVec 1))
         (A1 (_ BitVec 1))
         (B1 (_ BitVec 2))
         (C1 (_ BitVec 3))
         (D1 (_ BitVec 2))
         (E1 (_ BitVec 1))
         (F1 (_ BitVec 1))
         (G1 (_ BitVec 1))
         (H1 (_ BitVec 5))
         (I1 (_ BitVec 2))
         (J1 (_ BitVec 8))
         (K1 (_ BitVec 2))
         (L1 (_ BitVec 32)))
  (! (let ((a!1 (or ((_ bit2bool 0) E)
                    (not (= D #b1))
                    (not (= ((_ extract 1 1) B) #b1))
                    (not ((_ bit2bool 0) K))))
           (a!2 (not (ite (= D #b1) (= G #b1) (= V #b1))))
           (a!3 (ite (= D #b1)
                     (= ((_ extract 0 0) B) #b1)
                     (= ((_ extract 0 0) K1) #b1)))
           (a!4 (not (ite (= D #b1)
                          (= ((_ extract 1 1) B) #b1)
                          (= ((_ extract 1 1) K1) #b1))))
           (a!8 (or (= ((_ extract 0 0) B) #b1)
                    (= ((_ extract 0 0) E) #b0)
                    (not (= ((_ extract 1 1) B) #b1))))
           (a!10 (or (= ((_ extract 0 0) B) #b1)
                     (= ((_ extract 0 0) K) #b0)
                     (not (= ((_ extract 1 1) B) #b1))))
           (a!12 (or (= ((_ extract 0 0) E) #b0)
                     ((_ bit2bool 0) K)
                     (not (= D #b1))
                     (not (= ((_ extract 1 1) B) #b1)))))
     (let ((a!5 (or (ite (= D #b1)
                         (= ((_ extract 0 0) E) #b0)
                         (= ((_ extract 0 0) L1) #b0))
                    a!3
                    a!4))
           (a!6 (or (ite (= D #b1)
                         (= ((_ extract 0 0) K) #b0)
                         (= ((_ extract 0 0) L1) #b0))
                    a!3
                    a!4))
           (a!9 (ite (or (not (= G #b1)) (not a!8)) #b0 #b1))
           (a!11 (ite (or (not (= G #b1)) (not a!10)) #b0 #b1)))
     (let ((a!7 (= (ite (or a!2 (not a!5)) #b0 #b1)
                   (ite (or a!2 (not a!6)) #b0 #b1))))
     (let ((a!13 (and a!1 (= A #b1) a!7 (or (not (= D #b1)) (= a!9 a!11)) a!12)))
       (= (INV!slice!1 A
                       B
                       C
                       D
                       E
                       F
                       G
                       H
                       I
                       J
                       K
                       L
                       M
                       N
                       O
                       P
                       Q
                       R
                       S
                       T
                       U
                       V
                       W
                       X
                       Y
                       Z
                       A1
                       B1
                       C1
                       D1
                       E1
                       F1
                       G1
                       H1
                       I1
                       J1
                       K1
                       L1)
          a!13)))))
     :weight 0))
